c 20 promenne 100 klauzuli
c weights 4 8 6 -6 9 -3 -3 -4 -9 0 5 1 -6 6 2 0 -9 -6 3 5
p cnf 20 100
-2 6 -8 9 10 12 13 -14 -15 17 -19 20 0
-1 2 3 -6 -8 -10 -11 -13 -14 -17 -18 -20 0
1 -2 -4 5 6 -8 9 11 13 -14 15 -16 0
-1 2 4 5 6 7 -8 -9 -10 12 -13 15 16 18 19 -20 0
1 -2 4 5 -6 -8 10 -11 12 -13 -15 -16 18 -19 20 0
4 7 -9 10 11 12 13 14 15 -17 18 19 -20 0
3 -7 -8 -9 -11 -12 -14 15 16 17 -18 20 0
-2 3 -4 -5 6 7 9 -10 12 14 -17 -18 -19 20 0
2 3 5 -6 -7 -10 15 -16 17 19 0
-2 6 -8 -10 13 14 15 -17 -19 20 0
-1 2 3 -4 5 7 8 -10 -12 -13 -14 15 17 19 20 0
2 -3 -5 6 -7 -10 11 -12 -15 -20 0
-3 4 5 8 -9 10 -11 13 -14 -15 16 -17 18 -20 0
-2 -3 -4 5 -6 9 -10 -11 -12 -17 19 0
1 -2 4 -7 8 -9 14 -17 18 -19 20 0
2 -4 -5 6 -9 10 12 -13 16 18 19 20 0
-1 -4 5 6 -8 11 -13 -14 -15 -18 19 20 0
-1 -2 -3 -4 -5 -7 8 -9 10 -11 12 -14 15 -16 -17 19 20 0
1 -4 -5 7 -8 9 -10 11 13 -14 15 -16 17 -18 -19 20 0
2 -3 -4 5 6 -7 8 -9 10 -11 -13 14 -17 -18 0
1 3 4 6 -7 9 -10 -11 12 -14 -15 16 17 18 20 0
-2 -3 4 -8 9 11 12 -14 -17 18 -20 0
-1 2 -4 6 -7 -8 -10 11 12 -14 15 -16 17 18 -19 0
1 -2 3 4 -7 8 -10 12 13 14 -15 18 19 20 0
-1 4 5 6 8 -10 11 13 -16 17 -18 -19 20 0
-1 4 -5 -8 -9 -10 12 13 14 15 -16 17 -19 20 0
-3 -6 -7 -8 -9 -10 11 -12 -15 -16 17 -18 19 20 0
-1 5 -8 9 10 12 13 -14 15 -18 19 -20 0
-1 2 4 5 -9 12 -13 14 18 -20 0
-1 2 -3 -4 5 -6 7 8 -9 -11 -12 14 15 16 -17 -18 -19 20 0
-1 -3 -4 5 6 -7 -9 -10 -11 -12 -16 -19 20 0
2 -3 -4 5 -7 -8 9 10 11 -12 -13 14 15 17 18 -20 0
1 -2 -3 4 -5 -8 -11 12 13 -14 15 18 19 20 0
1 2 -3 4 5 6 -8 -10 -11 -12 13 -14 15 -16 17 -18 19 -20 0
-1 4 5 6 7 9 -11 12 13 15 16 17 18 -19 0
-1 -6 7 8 9 10 11 12 -13 -14 -15 -19 -20 0
-1 2 -3 4 -5 6 -7 8 9 -10 -12 13 -14 15 16 17 18 19 -20 0
1 2 -3 4 6 -8 9 -10 -13 -14 -15 -18 19 20 0
-2 4 -5 6 -8 9 -10 -11 12 -13 -14 -15 -16 -19 -20 0
1 2 3 4 -6 7 9 -10 11 12 14 -15 16 17 18 19 20 0
1 -2 3 4 5 -6 7 -8 10 -17 -18 20 0
-1 -3 -4 -5 -7 9 -10 -11 -14 15 -17 19 0
1 -2 -3 4 -5 7 -8 11 -13 -15 16 -18 -19 20 0
2 6 7 -8 -10 -11 -13 16 18 19 20 0
-1 2 5 6 7 -9 10 -11 12 -13 14 15 16 18 20 0
-2 -4 6 -7 -8 10 -11 -12 13 16 -17 -18 -20 0
2 -6 7 -9 -10 -12 -13 -14 -15 -19 20 0
-1 4 7 -8 -9 11 -12 13 15 -16 -17 -18 19 0
1 -3 4 7 9 11 -12 14 18 -19 0
1 -2 -3 -4 5 -6 8 9 10 -11 -12 -15 -16 17 19 -20 0
-3 4 5 -7 -8 -10 11 13 14 -16 -17 -18 -19 20 0
-1 -3 -4 -6 -8 9 11 12 -13 -14 -17 -20 0
-1 -2 3 4 6 -7 9 -10 12 -13 -15 16 -19 0
-1 -3 4 5 -7 8 -9 -10 11 -12 -13 16 17 -19 20 0
1 -2 -3 -5 6 7 10 -11 12 -13 -15 16 17 -19 0
-1 4 -5 7 8 9 -12 -13 -18 -19 -20 0
1 2 -4 5 -7 -8 9 -10 11 -13 14 15 16 -18 -20 0
-1 -3 5 -6 -8 -12 13 -14 -15 16 -18 19 20 0
2 -6 -7 8 -10 -11 12 -15 16 17 -18 19 0
4 5 6 -7 -8 9 -10 11 12 -15 16 -17 18 -19 0
-2 3 4 -5 -8 -11 13 -14 15 -16 -17 -18 19 0
1 5 7 8 9 -10 11 -12 13 -14 -15 -16 17 20 0
-3 -4 -5 6 -8 -9 11 13 14 17 18 0
1 2 3 4 5 6 -11 -13 -14 -15 18 -19 -20 0
-1 2 -3 5 -6 -8 -9 10 12 -14 -16 20 0
-1 -2 -3 -4 -5 -6 -7 8 9 10 -11 12 -13 14 15 -18 0
1 -2 -3 4 5 -6 8 -9 -10 -11 12 15 16 17 18 -19 20 0
2 4 -8 -9 -10 -12 -13 14 -15 -16 -18 -19 -20 0
-1 -2 -3 -4 5 -6 8 -9 -11 12 13 14 -17 -18 -19 0
-1 2 4 5 6 9 -12 -14 15 17 -18 -19 0
1 -3 4 -5 -6 -7 -10 -12 -13 17 -18 19 20 0
-1 2 -4 -5 -6 -8 9 11 14 -16 -17 20 0
-1 2 -3 4 5 7 -8 9 -10 11 -13 14 -16 17 -18 0
-4 -5 -7 -8 -9 11 12 13 -14 15 -16 -20 0
-1 -2 -3 -5 -7 -9 10 -11 12 13 14 -16 18 19 -20 0
-2 -4 5 6 -7 8 -11 12 13 -14 15 19 -20 0
-1 3 4 5 6 -7 8 9 12 13 -14 15 16 -17 19 20 0
-1 2 -3 -5 6 7 8 -9 10 -11 12 13 14 -15 -16 -18 -19 -20 0
-1 -2 -3 -4 -5 6 8 -9 10 11 12 -13 14 16 -18 -19 20 0
-1 -2 5 7 8 9 11 12 -17 -18 -19 0
-1 3 4 -5 8 -10 12 13 15 17 -19 0
1 4 -5 -6 -11 12 -13 -14 -16 -18 -19 -20 0
1 2 -4 5 -6 -9 11 14 15 -16 17 -18 19 -20 0
-1 2 -3 -4 5 -6 -7 8 9 -10 11 14 -16 17 18 19 -20 0
1 2 3 -4 5 -6 -7 8 9 10 11 -12 13 14 16 17 -18 19 20 0
1 2 4 -5 6 7 8 -9 -10 -11 16 17 18 -19 20 0
2 -4 -5 6 -7 -8 -9 10 11 -12 -13 14 15 -16 17 18 19 0
-1 2 -3 -4 5 -6 -7 8 -9 10 12 13 14 -15 -17 -20 0
-5 6 7 8 11 -12 -14 -15 -17 19 20 0
-1 -2 -4 -5 -6 -7 8 -9 10 -13 14 15 16 17 18 19 -20 0
1 -3 -4 -6 -7 8 12 13 -14 -15 16 -17 -18 19 -20 0
-1 2 -3 -4 -5 -7 8 9 10 -11 -12 -15 -16 -17 18 19 -20 0
1 -2 -3 -4 5 6 7 8 9 10 11 -12 -13 -14 16 -18 19 -20 0
-1 2 5 6 -7 -8 -9 10 -12 13 15 16 18 -19 -20 0
1 -2 3 4 7 8 -9 -10 11 12 -13 14 -15 -17 -18 -20 0
-2 -3 4 6 -7 -10 -11 12 14 15 -16 17 -18 -19 -20 0
-2 -3 5 -6 -9 -10 11 12 -14 15 -16 17 19 -20 0
1 2 -4 6 9 11 12 13 14 -16 -17 18 -19 20 0
2 4 -5 6 7 8 -9 10 -11 12 15 16 -19 0
-1 2 -3 -5 7 9 10 12 -13 -14 -16 -17 18 19 -20 0
